sat
(:added-eqs                   8744
 :arith-bound-propagations-lp 30705
 :arith-conflicts             373
 :arith-fixed-eqs             2284
 :arith-lower                 45181
 :arith-make-feasible         18570
 :arith-max-columns           870
 :arith-max-rows              441
 :arith-offset-eqs            6508
 :arith-upper                 35059
 :binary-propagations         54240
 :conflicts                   563
 :decisions                   12419
 :del-clause                  111
 :final-checks                1
 :max-memory                  30.32
 :memory                      21.01
 :minimized-lits              3090
 :mk-bool-var                 3799
 :mk-clause                   1362
 :mk-clause-binary            5296
 :num-allocs                  522870075
 :num-checks                  1
 :propagations                66221
 :restarts                    3
 :rlimit-count                1422973
 :solve-eqs-elim-vars         355
 :solve-eqs-steps             2203
 :time                        3.49
 :total-time                  3.60)
